% demand
num_movements = 23;
loading_factor = [1800, 1400, 1150, 1050, 1450, 1900, 1200, 850, 1050, 900, 1400, 1150, 1300, 1900, 1250, 1000, 1850, 1050, 1550, 1200, 1800, 1850, 1400];
pickup_time = [0, 0, 0, 0, 0, 0, 2, 2, 2, 2, 2, 2, 2, 2, 2, 4, 4, 4, 4, 4, 5, 5, 5];
delivery_time = [1, 1, 1, 1, 1, 1, 3, 3, 4, 4, 3, 5, 5, 6, 4, 6, 5, 6, 5, 6, 6, 6, 6];

% transporter definition
total_capacity = 11000;
num_decks = 4;
capacity = [3000, 3000, 1000, 4000];

% ways out of decks
num_ways_out = 2;
paths_out = array3d(decks, ways_out, decks, [
% ways out of deck d1
2, 4, 0, 0, 3, 4, 0, 0, 

% ways out of deck d2
4, 0, 0, 0, 0, 0, 0, 0,	

% ways out of deck d3
4, 0, 0, 0, 0, 0, 0, 0,	

% ways out of deck d4
0, 0, 0, 0,	0, 0, 0, 0,	

]);

